% seed = 0

mint = 62;
% maxt = 256;

nActs = 92;
dur = [0,1,3,4,5,3,3,2,4,3,1,3,2,5,4,4,1,1,4,6,5,4,4,3,1,4,4,3,4,5,5,2,2,2,4,1,3,3,4,4,2,1,2,2,2,5,4,2,2,4,2,1,5,3,3,3,5,1,2,4,4,2,1,2,3,1,2,1,4,2,4,2,4,4,1,3,2,1,1,2,4,2,3,3,2,3,3,1,2,2,4,0];

nSkills = 15;
sreq = [| 0,0,0,0,0,0,0,0,0,0,0,0,0,0,0,
	| 0,0,0,0,0,0,0,0,0,0,1,2,0,0,1,
	| 0,0,2,0,0,0,0,0,0,0,1,1,0,0,1,
	| 0,0,0,0,0,0,0,0,0,0,0,1,0,0,0,
	| 0,0,0,0,0,0,0,0,0,0,0,0,0,1,1,
	| 0,1,1,0,0,0,0,0,0,0,0,3,0,0,0,
	| 0,0,1,0,0,1,0,0,0,1,0,1,1,0,0,
	| 0,1,0,0,1,0,0,0,0,0,0,1,0,1,0,
	| 0,1,1,0,1,0,0,0,1,0,0,0,0,0,0,
	| 0,0,0,0,0,0,0,0,0,0,0,2,0,0,0,
	| 0,0,0,0,0,0,0,0,0,1,0,1,0,0,0,
	| 0,0,0,0,0,0,0,1,0,0,0,2,0,0,0,
	| 0,1,1,0,0,0,0,0,0,1,0,0,0,0,0,
	| 0,1,1,0,0,0,0,0,1,0,0,1,0,0,0,
	| 1,0,0,0,0,0,0,0,0,0,0,0,0,0,0,
	| 0,0,0,0,0,0,0,1,0,0,0,0,0,0,0,
	| 0,0,1,0,0,0,0,0,0,0,0,1,0,1,0,
	| 0,0,1,0,0,0,0,0,0,0,0,0,0,0,0,
	| 0,0,1,0,0,0,0,0,0,2,0,1,0,0,0,
	| 0,1,0,0,0,0,0,0,0,0,0,0,0,0,0,
	| 0,0,1,0,0,1,0,0,0,0,0,0,0,0,0,
	| 0,1,1,0,0,0,0,0,1,0,0,1,0,0,1,
	| 0,0,0,0,0,0,1,1,0,0,0,0,0,0,0,
	| 0,0,0,0,1,0,0,0,0,0,0,1,0,0,1,
	| 0,1,0,0,0,0,0,0,0,1,0,1,0,0,1,
	| 0,0,0,0,0,1,0,0,0,1,0,2,0,0,0,
	| 0,0,0,0,0,0,0,1,0,0,0,0,0,0,1,
	| 0,0,0,0,1,0,0,0,0,1,0,2,0,0,0,
	| 0,0,0,0,1,0,0,0,0,0,0,1,0,0,0,
	| 0,0,2,0,0,0,0,0,0,0,0,1,0,0,0,
	| 0,0,0,1,1,0,0,0,0,0,1,1,0,0,0,
	| 0,0,0,0,0,0,0,0,0,0,0,1,1,0,0,
	| 0,1,1,0,0,0,0,0,0,0,0,0,0,1,0,
	| 0,0,0,0,0,0,0,0,0,0,0,1,0,0,1,
	| 0,0,1,0,0,0,0,0,0,0,0,1,0,0,0,
	| 0,1,0,0,1,0,0,0,1,0,0,0,0,1,0,
	| 0,0,1,0,1,1,0,0,0,0,0,1,0,0,0,
	| 0,0,0,0,1,0,0,0,0,0,0,3,0,0,1,
	| 0,0,0,0,0,0,0,0,0,0,0,2,0,0,0,
	| 0,0,0,0,0,0,0,0,0,0,1,0,0,0,0,
	| 0,0,2,0,1,0,0,0,0,2,0,0,0,0,0,
	| 0,0,0,0,0,0,0,0,1,0,1,1,0,0,0,
	| 0,0,1,0,0,0,0,0,0,0,1,0,0,0,1,
	| 0,1,1,0,0,0,0,0,0,0,0,1,0,0,0,
	| 0,1,1,0,0,0,0,0,1,0,0,0,0,0,0,
	| 0,0,0,1,0,1,0,0,1,0,0,0,0,0,1,
	| 0,0,2,1,0,0,0,1,0,0,0,0,0,0,0,
	| 0,0,1,0,1,0,0,0,0,0,0,1,0,0,1,
	| 0,0,1,0,1,0,0,0,0,1,0,0,0,1,1,
	| 0,0,1,0,0,1,0,0,0,0,1,0,1,0,0,
	| 0,0,2,0,0,0,0,0,0,1,0,0,0,0,0,
	| 0,0,0,0,0,0,0,0,0,0,0,0,0,1,1,
	| 1,0,0,0,0,0,0,0,0,0,1,0,0,0,1,
	| 0,0,0,0,1,0,0,0,0,1,0,1,0,0,0,
	| 0,0,0,0,0,0,0,0,0,0,1,1,0,0,0,
	| 0,0,2,0,0,0,0,0,0,0,0,3,0,0,0,
	| 0,0,1,0,0,0,0,0,0,0,0,0,0,0,0,
	| 0,0,1,0,0,0,0,0,1,0,0,0,0,0,0,
	| 0,0,1,0,1,0,0,0,0,0,0,0,0,0,0,
	| 0,1,0,0,0,0,0,0,0,0,0,0,0,0,0,
	| 0,1,0,0,0,0,0,0,0,0,0,1,1,0,0,
	| 0,0,1,0,0,0,0,0,1,1,0,1,0,1,0,
	| 1,0,1,0,0,0,0,0,0,0,1,1,0,0,0,
	| 0,0,0,0,1,0,0,0,0,1,0,0,1,0,0,
	| 0,0,1,0,0,0,0,0,0,0,0,1,0,0,0,
	| 0,0,1,0,0,0,0,0,0,0,1,0,0,0,0,
	| 0,0,1,0,1,0,0,0,0,0,1,2,0,0,0,
	| 0,0,1,1,0,0,0,1,0,0,1,0,0,0,1,
	| 0,0,1,0,0,0,0,0,0,2,1,1,0,0,0,
	| 0,0,2,1,0,0,0,0,0,0,0,1,0,0,1,
	| 0,0,1,0,0,0,0,0,0,2,0,0,0,0,0,
	| 0,0,0,0,0,1,0,0,1,0,0,2,0,0,1,
	| 0,1,0,0,0,0,0,0,0,1,0,0,0,0,0,
	| 0,0,3,0,0,0,0,0,0,0,1,0,1,0,0,
	| 0,1,0,0,0,0,0,0,0,0,0,2,0,0,0,
	| 0,0,0,0,0,0,0,1,0,0,0,0,0,0,0,
	| 0,1,0,0,0,0,0,0,0,1,2,0,0,0,0,
	| 0,1,1,0,0,0,0,0,0,0,1,1,1,0,0,
	| 0,0,0,0,0,0,0,0,0,0,0,1,0,0,0,
	| 0,0,1,0,0,0,0,0,0,0,2,0,0,0,1,
	| 0,1,0,0,0,0,0,0,0,0,0,3,0,0,0,
	| 0,0,0,0,0,0,0,0,0,0,0,2,0,0,0,
	| 0,0,0,0,0,0,0,0,0,0,0,0,0,0,1,
	| 0,0,0,0,1,0,0,0,0,1,0,0,0,0,0,
	| 0,0,0,0,1,0,0,0,0,0,1,1,0,0,0,
	| 0,0,0,0,1,0,0,0,0,0,0,0,0,0,0,
	| 0,0,1,0,0,0,0,0,1,0,0,2,0,0,1,
	| 0,0,1,0,0,0,0,1,1,0,0,0,0,0,0,
	| 0,0,0,0,1,0,0,1,0,1,0,0,0,0,1,
	| 0,1,0,0,0,0,0,0,0,0,0,0,0,0,0,
	| 0,0,1,0,1,0,0,0,0,1,1,0,0,1,0,
	| 0,0,0,0,0,0,0,0,0,0,0,0,0,0,0, |];

% SumOfsreq = 280;

nResources = 16;
mastery = [| false,false,false,false,true,true,false,false,false,false,false,false,false,false,false,
	| false,false,false,false,false,false,false,true,true,false,false,false,false,false,false,
	| false,false,false,false,false,false,false,false,false,false,false,true,false,false,false,
	| false,false,false,false,false,false,false,false,false,true,true,true,false,false,false,
	| false,false,false,false,false,false,false,false,false,true,true,true,false,false,false,
	| false,false,false,false,false,false,false,false,false,false,false,false,false,false,true,
	| false,false,false,true,true,true,true,true,true,false,false,false,false,false,false,
	| true,true,true,false,false,false,false,false,false,false,false,false,true,true,true,
	| false,false,false,false,false,false,false,false,false,false,false,true,false,false,false,
	| false,true,true,false,false,false,false,false,false,false,false,false,false,false,false,
	| false,false,false,false,false,false,false,false,false,true,true,true,false,false,false,
	| false,false,true,false,false,false,false,false,false,false,false,false,false,false,false,
	| false,false,true,false,false,false,false,false,false,false,false,false,false,false,false,
	| false,false,false,false,false,false,false,false,false,true,true,true,false,false,false,
	| false,false,false,false,false,false,false,false,false,true,true,true,true,true,true,
	| false,false,false,false,false,false,false,false,false,true,true,true,false,false,false, |];

nPrecs = 166;
pred = [1,1,1,2,2,2,3,3,3,4,4,4,5,5,5,6,6,6,7,7,7,8,8,9,10,10,10,11,11,11,12,13,14,14,14,15,15,15,16,16,16,17,17,18,18,18,19,19,19,20,20,21,21,21,22,22,23,23,24,24,25,25,26,27,27,27,28,29,29,30,30,30,31,31,32,33,34,35,35,35,36,36,37,38,38,39,40,40,41,41,42,42,43,43,44,44,44,45,45,46,47,47,48,49,49,50,51,51,52,52,52,53,53,54,55,56,57,57,57,58,58,59,60,60,61,61,62,62,62,63,64,64,65,66,66,67,67,68,69,69,69,70,71,71,72,73,74,75,76,76,77,78,79,80,80,81,82,83,84,85,86,87,88,89,90,91];
succ = [2,3,4,16,5,8,67,23,24,11,6,7,9,20,12,10,28,24,35,56,32,10,15,13,18,43,69,17,28,47,14,19,42,23,40,37,29,48,34,87,74,25,24,61,36,53,26,68,21,77,31,27,22,31,62,40,25,57,81,39,44,38,61,42,45,30,52,43,59,33,60,52,45,46,63,47,79,41,49,39,50,38,67,65,55,85,51,67,89,64,66,80,91,72,66,78,86,59,60,54,75,62,55,50,71,73,65,59,58,75,88,57,72,84,78,64,66,78,88,82,86,82,70,63,76,87,74,69,71,65,68,79,82,75,70,77,80,84,73,76,70,85,83,87,73,88,76,77,90,79,90,83,80,81,83,84,89,85,86,91,91,90,89,92,92,92];

nUnrels = 2707;
unpred = [2,2,2,2,2,2,2,2,2,2,2,2,2,2,2,3,3,3,3,3,3,3,3,3,3,3,3,3,3,3,3,3,3,3,3,3,3,3,3,3,3,3,3,3,3,3,3,3,3,3,3,3,3,3,3,3,3,3,3,3,3,3,3,3,3,3,3,3,3,3,3,3,3,3,3,3,3,4,4,4,4,4,4,4,4,4,4,4,4,4,4,4,4,4,4,4,4,4,4,4,4,4,4,4,4,4,4,4,5,5,5,5,5,5,5,5,5,5,5,5,5,5,5,5,5,5,5,5,5,5,5,5,5,5,5,6,6,6,6,6,6,6,6,6,6,6,6,6,6,6,6,6,6,6,6,6,6,6,6,6,6,6,6,6,6,6,6,6,6,6,6,6,6,6,6,6,6,6,6,6,6,6,7,7,7,7,7,7,7,7,7,7,7,7,7,7,7,7,7,7,7,7,7,7,7,7,7,7,7,7,7,7,7,7,7,7,7,7,7,7,7,7,7,7,7,7,7,7,7,7,7,7,7,7,7,7,7,7,7,7,8,8,8,8,8,8,8,8,8,8,8,8,8,8,8,8,8,8,8,8,8,8,8,8,8,8,8,8,8,8,8,8,8,8,8,8,8,8,8,8,8,8,8,8,9,9,9,9,9,9,9,9,9,9,9,9,9,9,9,9,9,9,9,9,9,9,9,9,9,9,9,9,9,9,9,9,9,9,10,10,10,10,10,10,10,10,10,10,10,10,10,10,10,10,10,10,10,10,10,10,10,10,10,10,10,10,10,10,10,10,10,10,10,10,10,10,10,10,10,10,10,10,10,10,10,10,10,11,11,11,11,11,11,11,11,11,11,11,11,11,11,11,11,11,11,11,11,11,11,11,11,11,11,11,11,11,11,11,11,11,11,11,11,11,11,11,11,11,11,11,11,12,12,12,12,12,12,12,12,12,12,12,12,12,12,12,12,12,12,12,12,12,12,12,12,12,12,12,12,12,12,12,12,12,12,12,12,12,12,12,12,12,12,12,12,12,12,12,12,12,12,13,13,13,13,13,13,13,13,13,13,13,13,13,13,13,13,13,13,13,13,13,13,13,13,13,13,13,13,13,13,13,14,14,14,14,14,14,14,14,14,14,14,14,14,14,14,14,14,14,14,14,14,14,14,14,14,14,14,14,14,14,14,14,14,14,14,14,14,14,14,14,14,14,14,14,14,14,14,14,14,15,15,15,15,15,15,15,15,15,15,15,15,15,15,15,15,15,15,15,15,15,15,15,15,15,15,15,15,15,15,15,15,15,15,15,15,15,15,15,15,15,15,15,15,15,15,15,15,15,15,15,15,15,15,16,16,16,16,16,16,16,16,16,16,16,16,16,16,16,16,16,16,16,16,16,16,16,16,16,16,16,16,16,16,16,16,16,16,16,16,16,16,16,16,16,16,16,16,16,16,16,16,16,16,16,16,16,16,16,16,16,16,16,16,16,16,17,17,17,17,17,17,17,17,17,17,17,17,17,17,17,17,17,17,17,17,17,17,17,17,17,17,17,17,17,17,17,17,17,17,17,17,17,17,17,17,17,17,17,17,17,17,17,17,17,17,17,17,17,18,18,18,18,18,18,18,18,18,18,18,18,18,18,18,18,18,18,18,18,18,18,18,18,18,18,18,18,18,18,18,18,18,18,18,18,18,18,18,18,18,18,18,18,19,19,19,19,19,19,19,19,19,19,19,19,19,19,19,19,19,19,19,19,19,19,19,19,19,19,20,20,20,20,20,20,20,20,20,20,20,20,20,20,20,20,20,20,20,20,20,20,20,20,20,20,20,20,20,20,20,20,20,20,20,20,20,20,20,20,20,20,20,20,20,20,20,20,20,20,20,20,20,20,21,21,21,21,21,21,21,21,21,21,21,21,21,21,21,21,21,21,21,21,21,21,21,21,21,21,21,21,22,22,22,22,22,22,22,22,22,22,22,22,22,22,22,22,22,22,22,22,22,22,22,22,22,22,22,22,22,22,22,22,22,22,22,22,22,22,22,22,22,22,22,23,23,23,23,23,23,23,23,23,23,23,23,23,23,23,23,23,23,23,23,23,23,23,23,23,23,23,23,23,23,23,23,23,23,23,23,23,23,23,23,23,23,23,23,23,23,23,23,23,24,24,24,24,24,24,24,24,24,24,24,24,24,24,24,24,24,24,24,24,24,24,24,24,24,24,24,24,24,24,24,24,24,24,24,24,24,24,24,24,24,24,24,24,24,24,24,24,24,24,24,24,24,24,24,24,24,24,24,24,24,25,25,25,25,25,25,25,25,25,25,25,25,25,25,25,25,25,25,25,25,25,25,25,25,25,25,25,25,25,25,25,25,25,25,25,25,25,25,25,25,25,25,25,25,25,25,25,25,25,25,26,26,26,26,26,26,26,26,26,26,26,26,26,26,26,26,26,26,26,26,26,26,26,26,26,26,26,26,26,26,26,26,26,26,26,26,26,26,26,26,26,26,26,26,26,26,26,26,26,26,26,26,26,27,27,27,27,27,27,27,27,27,27,27,27,27,27,27,27,27,27,27,27,27,27,27,27,27,27,27,27,27,27,28,28,28,28,28,28,28,28,28,28,28,28,28,28,28,28,28,28,28,28,28,28,28,28,28,28,28,28,28,28,28,28,28,28,28,28,28,28,28,28,28,28,28,28,28,28,28,28,28,28,28,28,28,29,29,29,29,29,29,29,29,29,29,29,29,29,29,29,29,29,29,29,29,29,29,29,29,29,29,29,29,29,29,29,29,29,29,29,29,29,29,29,29,29,29,29,29,29,29,29,29,29,29,29,29,29,29,30,30,30,30,30,30,30,30,30,30,30,30,30,30,30,30,30,30,30,30,30,30,30,30,30,30,30,30,30,30,30,30,31,31,31,31,31,31,31,31,31,31,31,31,31,31,31,31,31,31,31,31,31,31,31,31,31,31,31,31,31,31,31,31,31,31,31,31,31,31,31,31,31,31,31,31,31,31,32,32,32,32,32,32,32,32,32,32,32,32,32,32,32,32,32,32,32,32,32,32,32,32,32,32,32,32,32,32,32,32,32,32,32,32,32,32,32,32,32,32,32,32,32,32,32,32,32,32,32,32,32,32,32,33,33,33,33,33,33,33,33,33,33,33,33,33,33,33,33,33,33,33,33,33,33,33,33,33,33,33,33,33,33,33,33,33,33,33,33,34,34,34,34,34,34,34,34,34,34,34,34,34,34,34,34,34,34,34,34,34,34,34,34,34,34,34,34,34,34,34,34,34,34,34,34,34,34,34,34,34,34,34,34,34,34,34,34,34,35,35,35,35,35,35,35,35,35,35,35,35,35,35,35,35,35,35,35,35,35,35,35,35,35,35,35,35,35,35,35,35,35,35,35,35,36,36,36,36,36,36,36,36,36,36,36,36,36,36,36,36,36,36,36,36,36,36,36,36,36,36,36,36,36,36,36,36,36,36,36,36,36,36,36,36,36,36,36,37,37,37,37,37,37,37,37,37,37,37,37,37,37,37,37,37,37,37,37,37,37,37,37,37,37,37,37,37,37,37,37,37,37,37,37,37,37,37,37,37,37,37,37,38,38,38,38,38,38,38,38,38,38,38,38,38,38,38,38,38,38,38,38,38,38,38,38,38,38,38,38,38,38,38,38,38,38,38,38,38,38,38,38,38,38,38,38,38,39,39,39,39,39,39,39,39,39,39,39,39,39,39,39,39,39,39,39,39,39,39,39,39,39,39,39,39,39,39,39,39,39,39,39,39,39,39,39,39,39,39,39,39,39,39,39,39,39,39,40,40,40,40,40,40,40,40,40,40,40,40,40,40,40,40,40,40,40,40,40,40,40,40,40,40,40,40,40,40,40,40,40,40,40,40,41,41,41,41,41,41,41,41,41,41,41,41,41,41,41,41,41,41,41,41,41,41,41,41,41,41,41,41,41,41,41,41,41,41,41,41,41,41,41,42,42,42,42,42,42,42,42,42,42,42,42,42,42,42,42,42,42,42,42,42,42,42,42,42,42,42,42,42,42,42,42,42,42,42,42,42,43,43,43,43,43,43,43,43,43,43,43,43,43,43,43,43,43,43,43,43,43,43,43,43,43,43,43,43,43,43,43,43,43,43,43,43,43,43,43,43,43,43,43,44,44,44,44,44,44,44,44,44,44,44,44,44,44,44,44,44,44,44,44,44,44,44,44,44,44,44,44,44,44,44,44,44,44,44,44,44,45,45,45,45,45,45,45,45,45,45,45,45,45,45,45,45,45,45,45,45,45,45,45,45,45,45,45,45,45,45,45,45,45,45,45,45,45,46,46,46,46,46,46,46,46,46,46,46,46,46,46,46,46,46,46,46,46,46,46,46,46,46,46,46,46,46,46,46,46,46,46,46,46,46,46,46,46,46,47,47,47,47,47,47,47,47,47,47,47,47,47,47,47,47,47,47,47,47,47,47,47,48,48,48,48,48,48,48,48,48,48,48,48,48,48,48,48,48,48,48,48,48,48,48,48,48,48,48,48,48,48,48,48,48,48,48,48,48,48,49,49,49,49,49,49,49,49,49,49,49,49,49,49,49,49,49,49,49,49,49,49,49,49,49,49,49,49,49,49,49,49,50,50,50,50,50,50,50,50,50,50,50,50,50,50,50,50,50,50,50,50,50,50,50,50,50,50,50,50,50,50,50,50,50,50,50,50,50,50,51,51,51,51,51,51,51,51,51,51,51,51,51,51,51,51,51,51,51,51,51,51,51,51,51,51,51,51,51,51,51,51,51,51,51,51,52,52,52,52,52,52,52,52,52,52,52,52,52,52,52,52,52,52,52,52,52,52,52,52,52,52,52,52,52,52,53,53,53,53,53,53,53,53,53,53,53,53,53,53,53,53,53,53,53,53,53,53,53,53,54,54,54,54,54,54,54,54,54,54,54,54,54,54,54,54,54,54,54,54,54,54,54,54,54,54,54,54,54,54,54,54,54,54,55,55,55,55,55,55,55,55,55,55,55,55,55,55,55,55,55,55,55,55,55,55,55,55,55,55,55,55,55,55,55,55,56,56,56,56,56,56,56,56,56,56,56,56,56,56,56,56,56,56,56,56,56,56,56,56,56,57,57,57,57,57,57,57,57,57,57,57,57,57,57,57,57,57,57,57,57,57,57,57,58,58,58,58,58,58,58,58,58,58,58,58,58,58,58,58,58,58,58,58,58,58,58,58,58,58,58,58,58,59,59,59,59,59,59,59,59,59,59,59,59,59,59,59,59,59,59,59,59,59,59,59,59,59,59,59,59,59,59,60,60,60,60,60,60,60,60,60,60,60,60,60,60,60,60,60,60,60,60,60,60,60,60,61,61,61,61,61,61,61,61,61,61,61,61,61,61,61,61,61,61,61,62,62,62,62,62,62,62,62,62,62,62,63,63,63,63,63,63,63,63,63,63,63,63,63,63,63,63,63,63,63,63,63,63,63,63,63,64,64,64,64,64,64,64,64,64,64,64,64,64,64,64,64,64,64,65,65,65,65,65,65,65,65,65,65,65,65,65,65,65,65,65,65,65,65,65,65,65,65,66,66,66,66,66,66,66,66,66,66,66,66,66,66,66,66,66,66,66,67,67,67,67,67,67,67,67,67,67,67,67,67,67,67,68,68,68,68,68,68,68,68,68,68,68,68,68,68,68,68,68,68,68,68,69,69,69,69,69,69,69,69,70,70,70,70,70,70,70,70,70,70,70,70,70,70,70,70,70,70,70,71,71,71,71,71,71,71,71,71,71,71,71,71,71,71,72,72,72,72,72,72,72,72,72,72,72,72,72,72,72,72,73,73,73,73,73,73,73,73,73,73,73,73,73,73,73,73,74,74,74,74,74,74,74,75,75,75,75,75,75,75,75,75,75,75,75,75,75,76,76,76,76,76,76,77,77,77,77,77,77,77,77,77,77,77,77,77,78,78,78,78,78,78,78,78,78,78,79,79,79,79,79,80,80,80,80,80,81,81,81,81,81,81,81,82,82,82,82,82,82,82,82,83,83,83,83,83,83,84,84,84,84,84,85,85,85,85,85,86,86,86,86,87,87,87,88,88,89,89,90];
unsucc = [3,4,6,7,11,17,24,28,32,35,39,41,49,56,64,4,5,6,7,8,9,10,11,12,13,14,15,16,17,18,19,20,21,22,26,27,28,29,30,31,32,33,34,35,36,37,40,41,42,43,45,46,47,48,49,50,51,52,53,54,56,58,59,60,61,62,63,64,68,69,71,72,73,74,76,79,87,5,8,9,12,13,14,15,16,19,20,21,22,23,26,27,29,30,31,33,34,37,40,42,45,46,48,51,54,59,60,67,6,7,8,10,11,15,16,17,18,24,28,29,32,34,35,36,37,39,41,43,48,49,50,53,56,64,72,7,8,9,11,12,13,14,15,16,17,19,20,21,22,23,25,26,27,29,30,31,32,33,34,35,37,40,41,42,44,45,46,47,48,49,51,54,56,59,60,62,63,64,67,68,71,74,8,9,10,11,12,13,14,15,16,17,18,19,20,21,22,23,24,25,26,27,28,29,30,31,33,34,36,37,38,40,42,43,44,45,46,47,48,51,52,53,54,55,57,58,59,60,61,62,66,67,69,70,72,74,75,76,77,78,9,11,12,13,14,16,17,19,20,21,22,23,24,25,26,27,28,30,31,32,33,34,35,39,40,41,42,44,45,46,47,49,51,52,54,56,58,60,62,63,64,68,71,74,10,11,12,14,15,16,17,18,20,23,24,25,28,29,32,34,35,36,37,38,39,41,43,44,48,49,50,53,55,56,57,64,72,78,11,12,13,14,15,16,17,19,20,21,22,23,24,25,26,27,28,29,30,31,32,33,34,35,37,39,40,41,42,44,45,46,47,48,49,51,52,54,56,58,59,60,62,63,64,67,68,71,74,12,13,14,15,16,18,19,20,21,22,23,26,27,29,30,31,32,33,34,35,36,37,40,41,42,43,45,46,48,49,50,51,53,54,56,57,59,60,61,63,64,67,68,72,13,15,16,17,18,19,20,21,22,24,26,27,28,29,30,31,32,33,34,35,36,37,39,41,43,45,46,47,48,49,50,52,53,54,56,58,60,61,62,63,64,68,69,71,72,73,74,76,79,87,14,15,16,17,18,20,23,24,25,28,29,32,34,35,36,37,38,39,41,43,44,48,49,50,53,55,56,57,64,72,78,15,16,17,18,19,20,21,22,24,26,27,28,29,30,31,32,33,34,35,36,37,39,41,43,45,46,47,48,49,50,52,53,54,56,58,60,61,62,63,64,68,69,71,72,73,74,76,79,87,16,17,18,19,20,21,22,23,24,25,26,27,28,30,31,32,33,34,35,36,38,39,40,41,42,44,45,46,47,49,50,51,52,53,54,56,57,58,60,61,62,63,64,65,66,68,69,70,71,74,75,76,79,87,17,18,19,20,21,22,23,24,25,26,27,28,29,30,31,32,33,35,36,37,38,39,40,41,42,43,44,45,46,47,48,49,50,51,52,53,54,55,56,57,58,59,60,61,62,63,64,65,66,67,68,69,70,71,72,73,75,77,78,82,88,89,18,19,20,21,22,23,26,27,28,29,30,31,32,33,34,35,36,37,40,41,42,43,45,46,47,48,49,50,51,52,53,54,56,57,58,59,60,61,62,63,64,67,68,69,71,72,73,74,76,79,80,87,88,19,20,21,22,23,24,25,26,27,28,29,30,31,32,33,34,35,37,39,40,41,42,43,44,45,46,47,48,49,51,52,54,56,58,59,60,62,63,64,67,68,69,71,74,20,23,24,25,28,29,32,34,35,36,37,38,39,41,43,44,48,49,50,53,55,56,57,64,72,78,21,22,23,24,25,26,27,28,29,30,32,33,34,35,36,37,38,39,40,41,42,43,44,47,48,49,50,51,52,53,55,56,57,58,61,62,64,66,67,68,69,71,72,73,74,75,76,78,79,80,81,83,87,88,23,24,25,26,28,29,32,34,35,36,37,38,39,41,43,44,48,49,50,53,55,56,57,61,64,68,72,78,23,24,25,26,27,28,29,30,31,32,33,34,35,36,37,38,39,41,42,43,44,45,46,47,48,49,50,52,53,54,55,56,57,58,60,61,63,64,66,68,72,75,78,24,26,27,28,29,30,31,32,33,34,35,36,37,39,40,41,42,43,45,46,47,48,49,50,51,52,53,54,56,58,59,60,61,62,63,64,67,68,69,71,72,73,74,76,79,80,81,84,87,25,26,27,28,29,30,31,32,33,34,35,36,37,38,40,41,42,43,44,45,46,47,48,49,50,51,52,53,54,55,56,57,58,59,60,61,62,63,64,65,66,67,68,69,70,71,72,73,74,75,76,77,78,79,80,82,83,87,88,89,90,26,27,28,29,30,31,32,33,34,35,36,37,39,40,41,42,43,45,46,47,48,49,50,51,52,53,54,56,57,58,59,60,61,62,63,64,67,68,69,71,72,73,74,76,79,80,81,84,87,88,27,28,29,30,31,32,33,34,35,36,37,38,39,40,41,42,43,44,45,46,47,48,49,50,51,52,53,54,55,56,57,58,59,60,62,63,64,65,66,67,68,69,70,71,72,73,74,75,77,78,82,88,89,28,29,31,32,34,35,36,37,38,39,40,41,43,44,46,48,49,50,51,53,54,55,56,57,61,64,67,68,72,78,29,30,31,32,33,34,35,36,37,38,39,40,41,42,43,44,45,46,47,48,49,50,51,53,54,55,56,57,59,60,61,62,63,64,65,66,67,68,69,70,71,72,73,74,76,78,79,80,81,83,84,85,87,30,31,32,33,34,35,36,37,38,39,40,41,42,44,45,46,47,48,49,50,51,52,53,54,55,56,57,58,60,61,62,63,64,65,66,67,68,69,70,71,74,75,76,77,78,79,80,81,83,84,85,86,87,90,31,32,34,35,36,37,38,39,40,41,42,43,44,45,46,48,49,50,51,53,54,55,56,57,59,61,64,66,67,68,72,78,32,33,34,35,36,37,38,39,40,41,42,43,44,47,48,49,50,51,52,53,55,56,57,58,61,62,64,66,67,68,69,71,72,73,74,75,76,77,78,79,80,81,83,87,88,90,33,34,35,36,37,38,39,40,41,42,43,44,45,46,47,48,49,50,51,52,53,54,55,56,57,58,59,60,61,62,64,66,67,68,69,70,71,72,73,74,75,76,77,78,79,80,81,83,84,85,86,87,88,90,91,34,35,36,37,38,39,40,41,42,43,44,45,46,48,49,50,51,52,53,54,55,56,57,58,59,60,61,63,64,65,66,67,68,72,78,82,35,36,37,38,39,40,41,42,43,44,45,46,47,48,49,50,51,52,53,54,55,56,57,58,59,60,61,62,63,64,65,66,67,68,69,70,71,72,73,74,75,76,77,78,82,87,88,89,90,36,37,38,40,42,43,44,45,46,47,48,51,52,53,54,55,56,57,58,59,60,61,62,63,65,66,67,69,70,72,74,75,76,77,78,82,37,39,40,41,42,43,44,45,46,47,48,49,51,52,53,54,56,57,58,59,60,61,62,63,64,66,67,68,69,70,71,72,74,75,76,77,79,80,81,84,86,87,90,38,39,40,41,42,43,44,45,46,47,48,49,50,51,52,53,54,55,56,57,58,59,60,61,62,63,64,65,66,68,69,70,71,72,73,74,75,76,78,79,82,87,88,89,39,40,41,42,43,44,45,46,47,48,49,50,51,52,53,54,56,57,58,59,60,61,62,63,64,66,67,68,69,70,71,72,73,74,75,76,77,79,80,81,84,86,87,88,90,40,41,42,43,44,45,46,47,48,49,50,51,52,53,54,55,56,57,58,59,60,61,62,63,64,65,66,67,68,69,70,71,72,73,74,75,76,77,78,79,80,81,82,83,84,86,87,88,89,90,41,42,43,44,45,46,47,48,49,50,52,53,54,55,56,57,58,60,61,62,63,64,66,68,69,70,71,72,73,74,75,76,78,79,87,88,42,43,44,45,46,47,48,49,50,51,52,53,54,55,56,57,58,59,60,61,62,63,65,66,67,69,70,71,72,73,74,75,76,77,78,82,87,88,90,43,44,45,46,47,48,49,50,51,52,53,54,55,56,57,58,59,60,61,62,63,64,65,67,68,69,71,72,73,74,76,78,79,82,87,88,89,44,45,46,47,48,49,50,51,52,53,54,55,56,57,58,59,60,61,62,63,64,65,66,67,68,69,70,71,74,75,76,77,78,79,80,81,82,83,84,85,86,87,90,45,46,47,48,49,50,51,52,53,54,55,56,57,58,59,60,61,62,63,64,65,67,68,69,71,72,73,74,76,79,80,81,82,84,87,88,89,46,47,48,49,50,51,52,53,54,55,56,57,58,61,62,64,66,67,68,69,71,72,73,74,75,76,77,78,79,80,81,83,84,86,87,88,90,47,48,49,50,51,52,53,55,56,57,58,59,60,61,62,63,64,65,66,67,68,69,70,71,72,73,74,75,76,77,78,79,80,81,82,83,85,87,88,89,90,48,49,50,51,52,53,54,55,56,57,58,59,60,61,63,64,65,66,67,68,72,78,82,49,50,51,52,53,54,56,57,58,59,60,61,62,63,64,65,66,67,68,69,70,71,72,73,74,75,76,77,79,80,81,82,84,86,87,88,89,90,51,52,53,54,55,56,57,58,59,60,61,62,63,64,65,66,67,68,69,70,72,74,75,76,77,78,79,80,81,82,84,86,51,52,53,54,55,56,57,58,59,60,61,62,63,64,65,66,67,68,69,70,71,72,74,75,76,77,78,79,80,81,82,83,84,85,86,87,90,91,52,53,54,55,56,57,58,60,61,62,63,64,66,67,68,69,70,71,72,73,74,75,76,77,78,79,80,81,83,84,85,86,87,88,90,91,53,54,55,56,57,59,60,61,62,63,64,65,66,67,68,69,70,71,72,73,74,76,78,79,80,81,83,84,85,87,54,55,56,58,59,60,61,62,63,64,65,67,68,69,71,74,76,79,80,81,82,84,86,87,55,56,57,58,59,60,61,62,63,64,65,66,67,68,69,70,71,72,73,74,75,76,77,78,79,80,81,82,83,85,87,88,89,90,56,57,58,59,60,61,62,63,64,65,66,67,68,69,70,71,72,73,74,75,76,77,79,80,81,82,84,86,87,88,89,90,57,58,59,60,61,62,63,65,66,67,69,70,71,72,73,74,75,76,77,78,82,87,88,89,90,58,59,60,61,62,63,64,65,67,68,69,71,72,73,74,76,79,80,81,82,84,86,87,59,60,61,62,63,64,65,66,67,68,69,70,71,72,73,74,75,76,77,78,79,80,81,83,84,85,87,88,90,60,61,62,63,64,65,66,67,68,69,70,71,72,73,74,75,76,77,78,79,80,81,83,84,85,86,87,88,90,91,61,62,64,66,67,68,69,71,72,73,74,75,76,77,78,79,80,81,83,84,86,87,88,90,62,63,64,65,66,67,68,69,70,71,72,73,74,75,77,78,82,88,89,63,64,65,66,67,68,72,75,77,78,82,64,66,67,68,69,70,71,72,73,74,75,76,77,78,79,80,81,83,84,85,86,87,88,90,91,65,66,67,69,70,71,72,73,74,75,76,77,78,82,87,88,89,90,66,67,68,69,70,71,72,73,74,75,76,77,78,79,80,81,83,84,85,86,87,88,90,91,67,68,69,71,72,73,74,76,78,79,80,81,82,83,84,86,87,88,89,68,69,70,71,72,73,74,75,76,78,79,82,87,88,89,69,70,71,72,73,74,75,76,77,78,79,80,81,82,83,85,87,88,89,90,71,72,74,75,77,78,82,87,71,72,73,74,75,76,77,78,79,80,81,82,83,84,86,87,88,89,90,72,73,74,75,76,77,78,79,80,81,82,84,86,88,89,74,75,76,77,78,79,80,81,82,83,84,85,86,87,90,91,74,75,76,77,78,79,80,81,82,83,84,85,86,87,90,91,75,77,78,82,87,88,89,76,78,79,80,81,82,83,84,85,86,87,88,89,91,77,78,82,87,88,89,78,79,80,81,82,83,84,85,86,87,88,89,91,79,80,81,82,84,86,87,88,89,90,82,87,88,89,90,82,87,88,89,90,82,83,85,87,88,89,90,83,84,85,86,87,88,90,91,84,86,87,88,89,90,85,87,88,89,90,86,87,88,89,90,87,88,89,90,88,89,91,90,91,90,91,91];

USEFUL_RES = [{},
	{3,4,5,6,8,9,11,14,15,16},
	{3,4,5,6,8,9,10,11,12,13,14,15,16},
	{3,4,5,9,11,14,15,16},
	{6,8,15},
	{3,4,5,8,9,10,11,12,13,14,15,16},
	{1,3,4,5,7,8,9,10,11,12,13,14,15,16},
	{1,3,4,5,7,8,9,10,11,14,15,16},
	{1,2,7,8,10,12,13},
	{3,4,5,9,11,14,15,16},
	{3,4,5,9,11,14,15,16},
	{2,3,4,5,7,9,11,14,15,16},
	{4,5,8,10,11,12,13,14,15,16},
	{2,3,4,5,7,8,9,10,11,12,13,14,15,16},
	{8},
	{2,7},
	{3,4,5,8,9,10,11,12,13,14,15,16},
	{8,10,12,13},
	{3,4,5,8,9,10,11,12,13,14,15,16},
	{8,10},
	{1,7,8,10,12,13},
	{2,3,4,5,6,7,8,9,10,11,12,13,14,15,16},
	{2,7},
	{1,3,4,5,6,7,8,9,11,14,15,16},
	{3,4,5,6,8,9,10,11,14,15,16},
	{1,3,4,5,7,9,11,14,15,16},
	{2,6,7,8,15},
	{1,3,4,5,7,9,11,14,15,16},
	{1,3,4,5,7,9,11,14,15,16},
	{3,4,5,8,9,10,11,12,13,14,15,16},
	{1,3,4,5,7,9,11,14,15,16},
	{3,4,5,8,9,11,14,15,16},
	{8,10,12,13,15},
	{3,4,5,6,8,9,11,14,15,16},
	{3,4,5,8,9,10,11,12,13,14,15,16},
	{1,2,7,8,10,15},
	{1,3,4,5,7,8,9,10,11,12,13,14,15,16},
	{1,3,4,5,6,7,8,9,11,14,15,16},
	{3,4,5,9,11,14,15,16},
	{4,5,11,14,15,16},
	{1,4,5,7,8,10,11,12,13,14,15,16},
	{2,3,4,5,7,9,11,14,15,16},
	{4,5,6,8,10,11,12,13,14,15,16},
	{3,4,5,8,9,10,11,12,13,14,15,16},
	{2,7,8,10,12,13},
	{1,2,6,7,8,15},
	{2,7,8,10,12,13},
	{1,3,4,5,6,7,8,9,10,11,12,13,14,15,16},
	{1,4,5,6,7,8,10,11,12,13,14,15,16},
	{1,4,5,7,8,10,11,12,13,14,15,16},
	{4,5,8,10,11,12,13,14,15,16},
	{6,8,15},
	{4,5,6,8,11,14,15,16},
	{1,3,4,5,7,9,11,14,15,16},
	{3,4,5,9,11,14,15,16},
	{3,4,5,8,9,10,11,12,13,14,15,16},
	{8,10,12,13},
	{2,7,8,10,12,13},
	{1,7,8,10,12,13},
	{8,10},
	{3,4,5,8,9,10,11,14,15,16},
	{2,3,4,5,7,8,9,10,11,12,13,14,15,16},
	{3,4,5,8,9,10,11,12,13,14,15,16},
	{1,4,5,7,8,11,14,15,16},
	{3,4,5,8,9,10,11,12,13,14,15,16},
	{4,5,8,10,11,12,13,14,15,16},
	{1,3,4,5,7,8,9,10,11,12,13,14,15,16},
	{2,4,5,6,7,8,10,11,12,13,14,15,16},
	{3,4,5,8,9,10,11,12,13,14,15,16},
	{3,4,5,6,7,8,9,10,11,12,13,14,15,16},
	{4,5,8,10,11,12,13,14,15,16},
	{1,2,3,4,5,6,7,8,9,11,14,15,16},
	{4,5,8,10,11,14,15,16},
	{4,5,8,10,11,12,13,14,15,16},
	{3,4,5,8,9,10,11,14,15,16},
	{2,7},
	{4,5,8,10,11,14,15,16},
	{3,4,5,8,9,10,11,12,13,14,15,16},
	{3,4,5,9,11,14,15,16},
	{4,5,6,8,10,11,12,13,14,15,16},
	{3,4,5,8,9,10,11,14,15,16},
	{3,4,5,9,11,14,15,16},
	{6,8,15},
	{1,4,5,7,11,14,15,16},
	{1,3,4,5,7,9,11,14,15,16},
	{1,7},
	{2,3,4,5,6,7,8,9,10,11,12,13,14,15,16},
	{2,7,8,10,12,13},
	{1,2,4,5,6,7,8,11,14,15,16},
	{8,10},
	{1,4,5,7,8,10,11,12,13,14,15,16},
	{}];

POTENTIAL_ACT = [{7,8,9,21,24,26,28,29,31,36,37,38,41,46,48,49,50,54,59,64,67,72,84,85,86,89,91},
	{9,12,14,16,22,23,27,36,42,45,46,47,58,62,68,72,76,87,88,89},
	{2,3,4,6,7,8,10,11,12,14,17,19,22,24,25,26,28,29,30,31,32,34,35,37,38,39,42,44,48,54,55,56,61,62,63,65,67,69,70,72,75,78,79,81,82,85,87},
	{2,3,4,6,7,8,10,11,12,13,14,17,19,22,24,25,26,28,29,30,31,32,34,35,37,38,39,40,41,42,43,44,48,49,50,51,53,54,55,56,61,62,63,64,65,66,67,68,69,70,71,72,73,74,75,77,78,79,80,81,82,84,85,87,89,91},
	{2,3,4,6,7,8,10,11,12,13,14,17,19,22,24,25,26,28,29,30,31,32,34,35,37,38,39,40,41,42,43,44,48,49,50,51,53,54,55,56,61,62,63,64,65,66,67,68,69,70,71,72,73,74,75,77,78,79,80,81,82,84,85,87,89,91},
	{2,3,5,22,24,25,27,34,38,43,46,48,49,52,53,68,70,72,80,83,87,89},
	{7,8,9,12,14,16,21,22,23,24,26,27,28,29,31,36,37,38,41,42,45,46,47,48,49,50,54,58,59,62,64,67,68,70,72,76,84,85,86,87,88,89,91},
	{2,3,5,6,7,8,9,13,14,15,17,18,19,20,21,22,24,25,27,30,32,33,34,35,36,37,38,41,43,44,45,46,47,48,49,50,51,52,53,56,57,58,59,60,61,62,63,64,65,66,67,68,69,70,71,72,73,74,75,77,78,80,81,83,87,88,89,90,91},
	{2,3,4,6,7,8,10,11,12,14,17,19,22,24,25,26,28,29,30,31,32,34,35,37,38,39,42,44,48,54,55,56,61,62,63,65,67,69,70,72,75,78,79,81,82,85,87},
	{3,6,7,8,9,13,14,17,18,19,20,21,22,25,30,33,35,36,37,41,43,44,45,47,48,49,50,51,56,57,58,59,60,61,62,63,65,66,67,68,69,70,71,73,74,75,77,78,80,81,87,88,90,91},
	{2,3,4,6,7,8,10,11,12,13,14,17,19,22,24,25,26,28,29,30,31,32,34,35,37,38,39,40,41,42,43,44,48,49,50,51,53,54,55,56,61,62,63,64,65,66,67,68,69,70,71,72,73,74,75,77,78,79,80,81,82,84,85,87,89,91},
	{3,6,7,9,13,14,17,18,19,21,22,30,33,35,37,41,43,44,45,47,48,49,50,51,56,57,58,59,62,63,65,66,67,68,69,70,71,74,78,80,87,88,91},
	{3,6,7,9,13,14,17,18,19,21,22,30,33,35,37,41,43,44,45,47,48,49,50,51,56,57,58,59,62,63,65,66,67,68,69,70,71,74,78,80,87,88,91},
	{2,3,4,6,7,8,10,11,12,13,14,17,19,22,24,25,26,28,29,30,31,32,34,35,37,38,39,40,41,42,43,44,48,49,50,51,53,54,55,56,61,62,63,64,65,66,67,68,69,70,71,72,73,74,75,77,78,79,80,81,82,84,85,87,89,91},
	{2,3,4,5,6,7,8,10,11,12,13,14,17,19,22,24,25,26,27,28,29,30,31,32,33,34,35,36,37,38,39,40,41,42,43,44,46,48,49,50,51,52,53,54,55,56,61,62,63,64,65,66,67,68,69,70,71,72,73,74,75,77,78,79,80,81,82,83,84,85,87,89,91},
	{2,3,4,6,7,8,10,11,12,13,14,17,19,22,24,25,26,28,29,30,31,32,34,35,37,38,39,40,41,42,43,44,48,49,50,51,53,54,55,56,61,62,63,64,65,66,67,68,69,70,71,72,73,74,75,77,78,79,80,81,82,84,85,87,89,91}];
